65122388777
14322445384
97012687729
36042045800
13241167520
74100582647
15323181196
44060582742
55122341809
10281198219
30101973716
04240811602
73102593123
11230781627
79012978328
37091959407
01270687423
55090229923
68110621775
48041092417
71072067345
23090552895
51010712694
94121865583
47080278105
21280385641
89112974623
39090238154
82090837458
39101157490
67020155378
59030495414
91071166340
22100959972
79121034560
00280335245
58051536944
09250762201
54050649872
69061554532
